# 40
720 696
516 548
964 933
47 604
89 840
125 564
906 928
789 915
985 318
295 837
271 810
883 54
904 74
629 451
403 831
13 963
464 656
340 514
917 347
401 472
320 193
258 39
444 637
779 759
433 731
805 232
781 772
734 787
772 889
704 159
685 247
868 773
566 537
861 410
644 386
110 582
629 226
165 699
955 522
492 835
